p cnf 17 37
e 1 0
a 2 0
e 3 0
a 4 0
e 5 0
a 6 0
e 7 8 9 10 11 12 13 14 15 16 17 0
-7 0
1 -8 0
4 -8 0
5 -8 0
-1 -4 -5 8 0
8 9 0
-7 9 0
-8 7 -9 0
1 -10 0
-4 -10 0
-5 -10 0
-1 4 5 10 0
10 11 0
-7 11 0
-10 7 -11 0
3 -12 0
6 -12 0
-3 -6 12 0
12 13 0
-7 13 0
-12 7 -13 0
3 -14 0
-6 -14 0
-3 6 14 0
14 15 0
-7 15 0
-14 7 -15 0
5 16 0
-7 16 0
-5 7 -16 0
9 -17 0
11 -17 0
13 -17 0
15 -17 0
16 -17 0
-9 -11 -13 -15 -16 17 0
-17 0
